Normalized Data/p10_1090_tsplib0_normalized_splitx10_0.vrp
NAME:p10_1090_tsplib0_NORMALIZED_splitx10_
BEST_KNOWN: 0
COMMENT: 0
DIMENSION: 1064
CAPACITY: 1000
EDGE_WEIGHT_FORMAT: FUNCTION
EDGE_WEIGHT_TYPE: EXACT_2D
NODE_COORD_SECTION
1 0.00000 0.00000
2 -13 -13
3 -13 -13
4 -13 -13
5 -13 -13
6 -13 -13
7 -13 -13
8 -13 -13
9 -13 -13
10 1 -9
11 1 -9
12 1 -9
13 -14 10
14 -14 10
15 -14 10
16 -14 10
17 -14 10
18 10 0
19 10 0
20 10 0
21 10 0
22 10 0
23 10 0
24 10 0
25 20 -15
26 20 -15
27 20 -15
28 20 -15
29 20 -15
30 20 -15
31 -2 -1
32 -2 -1
33 -2 -1
34 -2 -1
35 -2 -1
36 -2 -1
37 -2 -1
38 -2 -1
39 15 15
40 15 15
41 15 15
42 15 15
43 15 15
44 15 15
45 15 15
46 20 10
47 20 10
48 20 10
49 20 10
50 20 10
51 -9 24
52 -9 24
53 -9 24
54 5 31
55 5 31
56 5 31
57 20 30
58 20 30
59 20 30
60 20 30
61 20 30
62 20 30
63 20 30
64 20 30
65 0 16
66 0 16
67 0 16
68 27 0
69 27 0
70 27 0
71 27 0
72 27 0
73 27 22
74 27 22
75 27 22
76 27 22
77 27 -11
78 27 -11
79 27 -11
80 27 -11
81 27 -11
82 -14 1
83 -14 1
84 -14 1
85 -14 1
86 -14 1
87 -2 9
88 -2 9
89 -2 9
90 -26 21
91 -26 21
92 -26 21
93 27 13
94 27 13
95 27 13
96 27 13
97 27 13
98 27 13
99 27 13
100 27 13
101 31 -21
102 31 -21
103 31 -21
104 31 -21
105 31 -21
106 31 -21
107 9 -22
108 9 -22
109 9 -22
110 9 -22
111 9 -22
112 -9 -22
113 -9 -22
114 -9 -22
115 -24 -7
116 -24 -7
117 -24 -7
118 -24 -7
119 -24 -7
120 -28 8
121 -28 8
122 -28 8
123 -28 8
124 -28 8
125 -18 29
126 -18 29
127 -18 29
128 -18 29
129 -18 29
130 -18 29
131 -18 29
132 6 11
133 6 11
134 6 11
135 6 11
136 6 11
137 6 11
138 6 11
139 20 -1
140 20 -1
141 20 -1
142 0 -19
143 0 -19
144 0 -19
145 0 -19
146 0 -19
147 0 -19
148 17 -9
149 17 -9
150 17 -9
151 8 -9
152 8 -9
153 8 -9
154 8 -9
155 8 -9
156 -4 41
157 -4 41
158 -4 41
159 -4 41
160 -4 41
161 -4 41
162 -4 41
163 -4 41
164 -13 18
165 -13 18
166 -13 18
167 -13 18
168 -13 18
169 -13 18
170 -13 18
171 -13 18
172 -9 -6
173 -9 -6
174 -9 -6
175 -9 -6
176 -9 -6
177 -9 -6
178 15 5
179 15 5
180 15 5
181 15 5
182 20 15
183 20 15
184 20 15
185 20 15
186 20 15
187 20 15
188 20 15
189 19 -25
190 19 -25
191 19 -25
192 19 -25
193 19 -25
194 19 -25
195 25 -20
196 25 -20
197 25 -20
198 25 -20
199 25 -20
200 25 -20
201 12 31
202 12 31
203 12 31
204 12 31
205 12 31
206 12 31
207 -5 25
208 -5 25
209 -5 25
210 -5 25
211 -5 25
212 -5 25
213 -5 15
214 -5 15
215 -5 15
216 -5 15
217 -5 15
218 -5 15
219 -23 -18
220 -23 -18
221 -20 -21
222 -20 -21
223 -19 -16
224 -19 -16
225 -19 -16
226 -14 13
227 -14 13
228 -14 13
229 -14 13
230 -14 13
231 -14 13
232 15 -5
233 15 -5
234 15 -5
235 15 -5
236 16 7
237 16 7
238 16 7
239 16 7
240 15 -20
241 15 -20
242 15 -20
243 15 -20
244 15 -20
245 15 -20
246 15 -20
247 13 -14
248 13 -14
249 13 -14
250 13 -14
251 13 -14
252 13 -14
253 -23 3
254 -23 3
255 -23 3
256 -23 3
257 -23 3
258 -23 3
259 -23 3
260 2 17
261 2 17
262 2 17
263 2 17
264 2 17
265 2 17
266 2 17
267 2 17
268 14 14
269 14 14
270 14 14
271 14 14
272 14 14
273 14 14
274 17 29
275 17 29
276 17 29
277 17 29
278 17 29
279 -15 -9
280 -15 -9
281 -15 -9
282 5 -5
283 5 -5
284 5 -5
285 5 -5
286 5 -5
287 5 -5
288 5 -5
289 -14 12
290 -14 12
291 -14 12
292 -14 12
293 -14 12
294 -14 12
295 -14 12
296 -14 12
297 -18 28
298 -18 28
299 -18 28
300 -18 28
301 -18 28
302 -18 28
303 -18 28
304 -4 27
305 -4 27
306 -4 27
307 -4 27
308 -4 27
309 -4 27
310 17 -2
311 17 -2
312 17 -2
313 17 -2
314 17 -2
315 16 -14
316 16 -14
317 16 -14
318 16 -14
319 7 6
320 7 6
321 7 6
322 7 6
323 7 6
324 -4 -3
325 -4 -3
326 -4 -3
327 -4 -3
328 -30 -10
329 -30 -10
330 -30 -10
331 -23 7
332 -23 7
333 -23 7
334 1 -19
335 1 -19
336 1 -19
337 1 -19
338 1 -19
339 17 6
340 17 6
341 17 6
342 17 6
343 17 6
344 17 6
345 -8 -12
346 -8 -12
347 -8 -12
348 -8 -12
349 -8 -12
350 -8 -12
351 -18 -2
352 -18 -2
353 -18 -2
354 -18 -2
355 -18 -2
356 -18 -2
357 -18 -2
358 -18 -2
359 -22 -22
360 -22 -22
361 -22 -22
362 -22 -22
363 22 23
364 22 23
365 22 23
366 22 23
367 22 23
368 22 23
369 22 23
370 22 23
371 27 7
372 27 7
373 27 7
374 27 7
375 27 7
376 27 7
377 27 7
378 27 7
379 27 7
380 7 22
381 7 22
382 7 22
383 7 22
384 7 22
385 -19 22
386 -19 22
387 -19 22
388 -19 22
389 -19 22
390 -27 17
391 -27 17
392 -27 17
393 -27 17
394 -27 17
395 -27 17
396 -27 17
397 -28 3
398 -28 3
399 -28 3
400 -28 3
401 -28 3
402 -28 3
403 -28 3
404 -28 3
405 -28 3
406 -8 33
407 -8 33
408 -8 33
409 -8 33
410 -8 33
411 -5 13
412 -5 13
413 -5 13
414 -5 13
415 8 32
416 8 32
417 8 32
418 8 32
419 8 32
420 23 13
421 23 13
422 23 13
423 23 13
424 23 13
425 23 13
426 23 -8
427 23 -8
428 23 -8
429 23 -8
430 2 34
431 2 34
432 2 34
433 2 34
434 2 34
435 2 34
436 2 34
437 2 34
438 3 11
439 3 11
440 3 11
441 3 11
442 3 11
443 11 -25
444 11 -25
445 11 -25
446 11 -25
447 26 -2
448 26 -2
449 26 -2
450 26 -2
451 26 -2
452 26 -2
453 26 -2
454 27 28
455 27 28
456 27 28
457 27 28
458 28 34
459 28 34
460 28 34
461 28 34
462 28 34
463 28 34
464 28 34
465 28 34
466 -3 -13
467 -3 -13
468 -3 -13
469 -3 -13
470 -3 -13
471 -3 -13
472 10 0
473 10 0
474 10 0
475 10 0
476 10 0
477 10 0
478 10 0
479 10 0
480 24 -20
481 24 -20
482 24 -20
483 24 -20
484 24 -20
485 24 -20
486 24 -20
487 24 -20
488 -30 -29
489 -30 -29
490 -30 -29
491 -30 -29
492 -30 -29
493 -30 -29
494 -30 -29
495 -30 -29
496 -25 -18
497 -25 -18
498 -25 -18
499 -25 -18
500 -25 -18
501 -25 -18
502 -14 -25
503 -14 -25
504 -14 -25
505 -14 -25
506 -14 -25
507 -30 29
508 -30 29
509 -30 29
510 -30 29
511 -30 29
512 -5 -20
513 -5 -20
514 -5 -20
515 -5 -20
516 -5 -20
517 4 -25
518 4 -25
519 4 -25
520 4 -25
521 4 -25
522 -3 4
523 -3 4
524 -3 4
525 -3 4
526 -3 4
527 -3 4
528 -3 4
529 -10 -3
530 -10 -3
531 -10 -3
532 -10 -3
533 -10 -3
534 -10 -3
535 -10 -3
536 -10 20
537 -10 20
538 -10 20
539 -10 20
540 -10 20
541 13 -7
542 13 -7
543 13 -7
544 13 -7
545 13 -7
546 13 -7
547 21 2
548 21 2
549 21 2
550 21 2
551 21 2
552 6 14
553 6 14
554 6 14
555 6 14
556 6 14
557 0 -18
558 0 -18
559 0 -18
560 0 -18
561 0 -18
562 0 -18
563 20 10
564 20 10
565 20 10
566 20 10
567 20 10
568 20 10
569 20 10
570 20 -15
571 20 -15
572 20 -15
573 20 -15
574 -20 -5
575 -20 -5
576 -20 -5
577 -20 -5
578 -20 -5
579 -20 -5
580 -10 -5
581 -10 -5
582 -10 -5
583 -15 15
584 -15 15
585 -15 15
586 -15 15
587 -25 8
588 -25 8
589 -25 8
590 -25 8
591 20 25
592 20 25
593 20 25
594 20 25
595 20 25
596 20 25
597 20 25
598 -5 25
599 -5 25
600 -5 25
601 -15 30
602 -15 30
603 -15 30
604 -15 30
605 -15 30
606 -15 30
607 -15 30
608 15 0
609 15 0
610 15 0
611 15 0
612 15 0
613 15 0
614 15 0
615 -5 -10
616 -5 -10
617 -5 -10
618 -5 -10
619 -5 -10
620 -5 -10
621 -20 -25
622 -20 -25
623 -5 -30
624 -5 -30
625 -5 -30
626 -5 -30
627 -5 -30
628 -5 -30
629 -25 -15
630 -25 -15
631 -25 -15
632 -25 -15
633 -30 -5
634 -30 -5
635 -30 -5
636 -15 5
637 -15 5
638 -15 5
639 -15 5
640 -15 5
641 -15 5
642 -15 5
643 -20 25
644 -20 25
645 -20 25
646 -20 25
647 -20 25
648 -20 25
649 10 30
650 10 30
651 10 30
652 10 30
653 10 30
654 10 -15
655 10 -15
656 10 -15
657 10 -15
658 10 -15
659 10 -15
660 10 -15
661 10 -15
662 10 -25
663 10 -25
664 10 -25
665 10 -25
666 10 -25
667 20 -30
668 20 -30
669 20 -30
670 20 -30
671 20 -30
672 20 -30
673 20 -30
674 30 0
675 30 0
676 30 0
677 30 0
678 30 0
679 30 -15
680 30 -15
681 10 -5
682 10 -5
683 10 -5
684 10 -5
685 10 -5
686 0 5
687 0 5
688 0 5
689 0 5
690 0 5
691 6 2
692 6 2
693 6 2
694 6 2
695 6 2
696 6 2
697 6 2
698 29 7
699 29 7
700 29 7
701 29 7
702 29 7
703 29 7
704 29 7
705 5 25
706 5 25
707 5 25
708 5 25
709 5 25
710 5 25
711 5 25
712 -4 17
713 -4 17
714 -4 17
715 -4 17
716 0 34
717 0 34
718 0 34
719 18 17
720 18 17
721 18 17
722 18 17
723 18 17
724 18 17
725 18 17
726 30 20
727 30 20
728 30 20
729 30 20
730 30 20
731 30 20
732 28 30
733 28 30
734 28 30
735 28 30
736 28 30
737 28 30
738 28 30
739 -33 25
740 -33 25
741 -33 25
742 -33 25
743 -33 25
744 -33 25
745 -33 25
746 -15 -15
747 -15 -15
748 -15 -15
749 -15 -15
750 -15 -15
751 -30 -30
752 -30 -30
753 -30 -30
754 -30 -30
755 -30 -30
756 -30 -30
757 -30 -30
758 25 -23
759 25 -23
760 25 -23
761 5 -10
762 5 -10
763 5 -10
764 5 -10
765 5 -10
766 5 -10
767 7 -28
768 7 -28
769 7 -28
770 7 -28
771 7 -28
772 -11 -23
773 -11 -23
774 -11 -23
775 -11 -23
776 -11 -23
777 -11 -23
778 -11 -23
779 -12 -32
780 -12 -32
781 -12 -32
782 -12 -32
783 -12 -32
784 -12 -32
785 -12 -32
786 -12 -32
787 -24 -21
788 -24 -21
789 -24 -21
790 -24 -21
791 -24 -21
792 -29 3
793 -29 3
794 -29 3
795 -29 3
796 -29 3
797 -33 13
798 -33 13
799 -33 13
800 -33 13
801 -33 13
802 -27 21
803 -27 21
804 -27 21
805 -27 21
806 -27 21
807 -27 21
808 -27 21
809 -22 17
810 -22 17
811 -22 17
812 -22 17
813 -22 17
814 -22 17
815 -22 17
816 -22 17
817 -22 17
818 -29 33
819 -29 33
820 -29 33
821 -29 33
822 12 12
823 12 12
824 12 12
825 12 12
826 12 12
827 12 12
828 12 12
829 14 23
830 14 23
831 14 23
832 14 23
833 14 23
834 14 23
835 -8 8
836 -8 8
837 -8 8
838 -8 8
839 -8 8
840 -8 8
841 2 -4
842 2 -4
843 2 -4
844 2 -4
845 2 -4
846 22 -6
847 22 -6
848 22 -6
849 22 -6
850 22 -6
851 22 -6
852 22 -6
853 22 -6
854 28 -12
855 28 -12
856 28 -12
857 28 -12
858 28 -12
859 28 -12
860 18 -23
861 18 -23
862 18 -23
863 -3 -23
864 -3 -23
865 -3 -23
866 1 -9
867 1 -9
868 1 -9
869 1 -9
870 -14 -11
871 -14 -11
872 -14 -11
873 -14 -11
874 -14 -11
875 -14 -11
876 -18 -1
877 -18 -1
878 -18 -1
879 -23 -11
880 -23 -11
881 -23 -11
882 -23 -11
883 -23 -11
884 -11 23
885 -8 34
886 -8 34
887 -20 42
888 -20 42
889 -20 42
890 27 42
891 14 38
892 32 -30
893 32 -30
894 32 -30
895 32 -30
896 32 -30
897 21 4
898 21 4
899 21 4
900 21 4
901 21 4
902 21 4
903 21 4
904 21 4
905 21 4
906 2 12
907 2 12
908 2 12
909 2 12
910 2 12
911 2 21
912 2 21
913 2 21
914 22 33
915 12 -19
916 12 -19
917 12 -19
918 12 -19
919 12 -19
920 9 -18
921 9 -18
922 9 -18
923 9 -18
924 9 -18
925 11 -22
926 11 -22
927 11 -22
928 11 -22
929 11 -22
930 11 -22
931 11 -22
932 11 -22
933 14 -24
934 14 -24
935 14 -24
936 14 -24
937 14 7
938 14 7
939 14 7
940 14 7
941 14 7
942 14 7
943 14 7
944 14 7
945 18 8
946 18 8
947 18 8
948 18 8
949 18 8
950 18 8
951 26 17
952 26 17
953 26 17
954 22 13
955 22 13
956 22 13
957 22 13
958 22 13
959 21 2
960 21 2
961 21 2
962 21 2
963 20 19
964 20 19
965 20 19
966 20 19
967 20 19
968 20 19
969 20 19
970 -20 12
971 -20 12
972 -20 12
973 -20 12
974 -20 12
975 -21 2
976 -21 2
977 -21 2
978 -21 2
979 -21 2
980 -21 2
981 -24 -4
982 -24 -4
983 -24 -4
984 -24 -4
985 -24 -4
986 -24 -4
987 -19 -13
988 -19 -13
989 -19 -13
990 -31 -17
991 -31 -17
992 -7 -17
993 -7 -17
994 -7 -17
995 -7 -17
996 -7 -17
997 -9 17
998 -9 17
999 -9 17
1000 -9 17
1001 -9 17
1002 -9 17
1003 -9 17
1004 -9 0
1005 -9 0
1006 -9 0
1007 -9 0
1008 -4 32
1009 -4 32
1010 -4 32
1011 -4 32
1012 -4 32
1013 -20 -16
1014 -20 -16
1015 -20 -16
1016 -20 -16
1017 -20 -16
1018 -13 -13
1019 -13 -13
1020 -13 -13
1021 -13 -13
1022 -13 -13
1023 -13 -13
1024 -13 -13
1025 -17 -11
1026 -17 -11
1027 -17 -11
1028 -17 -11
1029 -17 -11
1030 -17 -11
1031 -17 -11
1032 -9 -8
1033 -9 -8
1034 -9 -8
1035 -9 -8
1036 -9 -8
1037 -9 -8
1038 -10 -11
1039 -10 -11
1040 -10 -11
1041 -10 -11
1042 -13 -8
1043 -13 -8
1044 -10 -14
1045 -10 -14
1046 -10 -14
1047 -10 -14
1048 -10 -14
1049 -16 -14
1050 -16 -14
1051 -16 -14
1052 -16 -14
1053 -16 -14
1054 -16 -14
1055 -16 -14
1056 -16 -14
1057 -16 -14
1058 -15 -9
1059 -15 -9
1060 -15 -9
1061 -15 -9
1062 -17 -17
1063 -17 -17
1064 -17 -17
DEMAND_SECTION
1 0
2 200
3 200
4 200
5 100
6 50
7 10
8 10
9 10
10 200
11 200
12 10
13 200
14 50
15 10
16 10
17 10
18 200
19 200
20 100
21 10
22 10
23 10
24 10
25 200
26 200
27 200
28 200
29 10
30 10
31 200
32 200
33 200
34 100
35 50
36 10
37 10
38 10
39 200
40 200
41 50
42 10
43 10
44 10
45 10
46 100
47 50
48 10
49 10
50 10
51 200
52 50
53 10
54 100
55 10
56 10
57 200
58 200
59 200
60 100
61 10
62 10
63 10
64 10
65 200
66 200
67 10
68 200
69 200
70 50
71 10
72 10
73 200
74 200
75 100
76 10
77 200
78 200
79 200
80 50
81 10
82 200
83 100
84 10
85 10
86 10
87 100
88 50
89 10
90 200
91 200
92 100
93 200
94 200
95 200
96 100
97 50
98 10
99 10
100 10
101 200
102 200
103 100
104 10
105 10
106 10
107 100
108 50
109 10
110 10
111 10
112 200
113 200
114 200
115 200
116 200
117 200
118 10
119 10
120 200
121 200
122 100
123 50
124 10
125 200
126 200
127 200
128 100
129 10
130 10
131 10
132 200
133 200
134 200
135 50
136 10
137 10
138 10
139 100
140 10
141 10
142 200
143 200
144 200
145 100
146 10
147 10
148 200
149 10
150 10
151 100
152 50
153 10
154 10
155 10
156 200
157 200
158 200
159 100
160 50
161 10
162 10
163 10
164 200
165 200
166 200
167 100
168 10
169 10
170 10
171 10
172 200
173 200
174 200
175 100
176 50
177 10
178 200
179 50
180 10
181 10
182 200
183 200
184 200
185 100
186 50
187 10
188 10
189 200
190 200
191 50
192 10
193 10
194 10
195 200
196 200
197 200
198 100
199 10
200 10
201 200
202 200
203 50
204 10
205 10
206 10
207 200
208 200
209 50
210 10
211 10
212 10
213 200
214 200
215 200
216 100
217 50
218 10
219 200
220 50
221 100
222 50
223 200
224 200
225 200
226 200
227 200
228 200
229 10
230 10
231 10
232 200
233 200
234 200
235 200
236 200
237 100
238 10
239 10
240 200
241 200
242 50
243 10
244 10
245 10
246 10
247 200
248 200
249 10
250 10
251 10
252 10
253 200
254 200
255 200
256 100
257 50
258 10
259 10
260 200
261 200
262 100
263 50
264 10
265 10
266 10
267 10
268 200
269 200
270 200
271 10
272 10
273 10
274 200
275 200
276 200
277 10
278 10
279 100
280 50
281 10
282 200
283 200
284 200
285 200
286 10
287 10
288 10
289 200
290 200
291 200
292 50
293 10
294 10
295 10
296 10
297 200
298 200
299 200
300 50
301 10
302 10
303 10
304 200
305 100
306 10
307 10
308 10
309 10
310 200
311 200
312 200
313 50
314 10
315 200
316 200
317 10
318 10
319 200
320 100
321 50
322 10
323 10
324 200
325 200
326 200
327 200
328 200
329 100
330 10
331 200
332 100
333 50
334 200
335 100
336 10
337 10
338 10
339 200
340 100
341 50
342 10
343 10
344 10
345 200
346 200
347 50
348 10
349 10
350 10
351 200
352 200
353 200
354 100
355 50
356 10
357 10
358 10
359 100
360 50
361 10
362 10
363 200
364 200
365 200
366 200
367 50
368 10
369 10
370 10
371 200
372 200
373 200
374 100
375 50
376 10
377 10
378 10
379 10
380 200
381 200
382 200
383 200
384 50
385 200
386 200
387 200
388 200
389 10
390 200
391 200
392 200
393 100
394 50
395 10
396 10
397 200
398 200
399 200
400 200
401 50
402 10
403 10
404 10
405 10
406 100
407 10
408 10
409 10
410 10
411 200
412 100
413 50
414 10
415 200
416 200
417 100
418 50
419 10
420 200
421 200
422 200
423 50
424 10
425 10
426 200
427 200
428 100
429 50
430 200
431 200
432 200
433 100
434 10
435 10
436 10
437 10
438 200
439 200
440 200
441 10
442 10
443 200
444 100
445 10
446 10
447 200
448 200
449 200
450 10
451 10
452 10
453 10
454 200
455 200
456 200
457 10
458 200
459 200
460 200
461 200
462 50
463 10
464 10
465 10
466 200
467 200
468 200
469 100
470 10
471 10
472 200
473 200
474 200
475 200
476 50
477 10
478 10
479 10
480 200
481 200
482 200
483 100
484 10
485 10
486 10
487 10
488 200
489 200
490 200
491 100
492 50
493 10
494 10
495 10
496 100
497 50
498 10
499 10
500 10
501 10
502 200
503 200
504 200
505 100
506 50
507 200
508 200
509 100
510 50
511 10
512 200
513 10
514 10
515 10
516 10
517 200
518 200
519 200
520 200
521 50
522 200
523 200
524 200
525 10
526 10
527 10
528 10
529 200
530 200
531 200
532 100
533 10
534 10
535 10
536 200
537 200
538 200
539 100
540 10
541 200
542 200
543 10
544 10
545 10
546 10
547 200
548 200
549 200
550 100
551 10
552 100
553 50
554 10
555 10
556 10
557 200
558 200
559 200
560 10
561 10
562 10
563 200
564 200
565 200
566 100
567 10
568 10
569 10
570 200
571 200
572 200
573 100
574 200
575 200
576 200
577 200
578 50
579 10
580 200
581 200
582 50
583 200
584 50
585 10
586 10
587 100
588 50
589 10
590 10
591 200
592 200
593 100
594 10
595 10
596 10
597 10
598 200
599 100
600 50
601 200
602 200
603 200
604 200
605 10
606 10
607 10
608 200
609 200
610 200
611 200
612 10
613 10
614 10
615 200
616 200
617 200
618 10
619 10
620 10
621 100
622 10
623 200
624 100
625 10
626 10
627 10
628 10
629 200
630 200
631 200
632 50
633 200
634 200
635 10
636 200
637 100
638 50
639 10
640 10
641 10
642 10
643 200
644 200
645 200
646 100
647 50
648 10
649 200
650 200
651 200
652 100
653 10
654 200
655 200
656 200
657 200
658 10
659 10
660 10
661 10
662 200
663 100
664 50
665 10
666 10
667 200
668 200
669 50
670 10
671 10
672 10
673 10
674 100
675 10
676 10
677 10
678 10
679 200
680 200
681 200
682 200
683 200
684 10
685 10
686 200
687 200
688 100
689 10
690 10
691 200
692 200
693 200
694 200
695 50
696 10
697 10
698 200
699 200
700 50
701 10
702 10
703 10
704 10
705 200
706 200
707 200
708 10
709 10
710 10
711 10
712 200
713 200
714 50
715 10
716 200
717 200
718 200
719 200
720 200
721 100
722 50
723 10
724 10
725 10
726 200
727 200
728 200
729 100
730 10
731 10
732 200
733 200
734 200
735 50
736 10
737 10
738 10
739 200
740 200
741 200
742 100
743 10
744 10
745 10
746 200
747 200
748 100
749 50
750 10
751 200
752 200
753 100
754 10
755 10
756 10
757 10
758 200
759 100
760 50
761 200
762 100
763 10
764 10
765 10
766 10
767 200
768 200
769 200
770 200
771 50
772 200
773 200
774 100
775 10
776 10
777 10
778 10
779 200
780 200
781 100
782 50
783 10
784 10
785 10
786 10
787 200
788 200
789 100
790 50
791 10
792 200
793 10
794 10
795 10
796 10
797 200
798 200
799 200
800 10
801 10
802 200
803 200
804 200
805 10
806 10
807 10
808 10
809 200
810 200
811 200
812 200
813 50
814 10
815 10
816 10
817 10
818 200
819 50
820 10
821 10
822 200
823 200
824 100
825 10
826 10
827 10
828 10
829 200
830 100
831 50
832 10
833 10
834 10
835 200
836 200
837 50
838 10
839 10
840 10
841 100
842 50
843 10
844 10
845 10
846 200
847 200
848 200
849 200
850 50
851 10
852 10
853 10
854 200
855 200
856 10
857 10
858 10
859 10
860 200
861 200
862 50
863 100
864 10
865 10
866 200
867 200
868 200
869 50
870 100
871 50
872 10
873 10
874 10
875 10
876 200
877 50
878 10
879 200
880 200
881 100
882 10
883 10
884 100
885 200
886 10
887 100
888 10
889 10
890 200
891 100
892 200
893 200
894 200
895 100
896 10
897 200
898 200
899 200
900 200
901 50
902 10
903 10
904 10
905 10
906 200
907 50
908 10
909 10
910 10
911 100
912 10
913 10
914 100
915 200
916 200
917 200
918 100
919 10
920 200
921 200
922 50
923 10
924 10
925 200
926 200
927 100
928 50
929 10
930 10
931 10
932 10
933 200
934 50
935 10
936 10
937 200
938 200
939 100
940 50
941 10
942 10
943 10
944 10
945 200
946 200
947 10
948 10
949 10
950 10
951 200
952 200
953 200
954 200
955 200
956 100
957 10
958 10
959 200
960 200
961 50
962 10
963 200
964 200
965 200
966 100
967 50
968 10
969 10
970 200
971 200
972 200
973 10
974 10
975 200
976 100
977 10
978 10
979 10
980 10
981 200
982 200
983 100
984 50
985 10
986 10
987 200
988 100
989 10
990 200
991 100
992 200
993 200
994 200
995 100
996 10
997 200
998 200
999 200
1000 100
1001 50
1002 10
1003 10
1004 200
1005 50
1006 10
1007 10
1008 200
1009 200
1010 50
1011 10
1012 10
1013 200
1014 200
1015 10
1016 10
1017 10
1018 200
1019 200
1020 50
1021 10
1022 10
1023 10
1024 10
1025 200
1026 200
1027 200
1028 200
1029 10
1030 10
1031 10
1032 200
1033 200
1034 200
1035 200
1036 10
1037 10
1038 200
1039 10
1040 10
1041 10
1042 100
1043 50
1044 200
1045 200
1046 100
1047 50
1048 10
1049 200
1050 200
1051 200
1052 100
1053 50
1054 10
1055 10
1056 10
1057 10
1058 200
1059 200
1060 200
1061 50
1062 200
1063 100
1064 50
DEPOT_SECTION
1
-1
EOF