Normalized Data/p10_1090_tsplib0_normalized_splitx10_0.sol
1063 -3 1019 1023 6 1018 746 748 749 745 1021 7 1022 1020 -9 866 865 10 867 -11 868 337 333 334 559 561 558 556 557 -12 970 971 288 290 -15 16 13 14 810 815 814 808 813 816 811 812 809 -18 472 473 471 474 -19 20 22 17 21 312 313 309 310 311 -23 477 478 475 70 68 69 67 71 451 450 452 446 449 447 -29 569 570 24 28 26 150 152 153 154 151 -30 323 326 324 325 -31 283 282 281 284 -32 579 580 172 173 -33 1058 1059 279 278 1042 1041 171 -35 37 36 34 879 880 115 118 114 116 117 -52 51 50 883 539 536 998 997 1002 -55 54 53 418 416 414 415 417 649 652 383 -57 58 59 61 63 56 62 60 590 596 -64 65 66 264 263 259 261 260 262 265 266 -72 74 73 75 952 951 -77 76 78 845 846 -85 84 81 83 82 875 877 876 639 641 635 638 637 640 636 -87 716 432 436 434 435 433 431 430 429 -88 86 712 714 711 713 217 213 212 -94 96 97 93 92 98 95 99 421 423 -107 109 664 665 661 663 662 443 445 444 442 927 915 -126 129 125 128 130 124 127 299 296 300 301 -131 133 136 134 135 137 319 322 693 691 695 -132 380 381 382 379 -140 138 139 448 673 674 676 675 677 698 700 699 697 701 377 375 694 -141 142 145 143 862 863 864 514 512 511 513 515 -162 157 161 159 158 155 160 156 884 885 408 -176 175 174 1034 1036 1032 1035 1033 1031 -178 180 179 898 897 896 900 899 902 901 903 904 -183 187 182 184 186 181 185 718 723 -188 191 192 193 190 892 893 895 891 894 -189 667 671 669 666 670 668 672 933 932 934 935 923 -197 198 195 196 199 194 147 149 148 683 684 -205 203 204 200 201 202 651 650 648 -210 209 208 598 602 603 604 605 606 601 600 -211 206 207 599 597 306 307 308 305 304 303 -221 220 359 358 788 787 790 497 495 500 629 280 1060 -232 231 233 234 540 -237 238 236 235 944 945 341 343 342 338 340 -242 240 239 244 243 245 241 861 859 860 286 287 285 -248 251 249 246 247 250 914 917 916 918 -256 258 257 252 253 255 254 979 978 977 974 -270 269 272 271 268 824 827 823 822 821 825 -277 275 276 274 273 829 828 832 830 833 831 -293 294 292 291 295 289 226 228 227 225 229 230 836 837 839 -298 302 297 642 645 643 647 646 388 -315 314 25 27 571 -317 316 758 759 757 100 102 105 103 101 104 572 -321 318 320 42 41 43 44 38 40 39 267 826 -327 329 328 634 632 633 984 985 357 350 356 355 -330 331 119 123 120 401 400 402 398 -332 587 588 589 586 122 121 799 797 798 796 800 -336 335 516 520 518 519 517 146 144 560 -339 946 947 566 565 562 45 46 564 563 49 567 -348 349 345 347 346 344 1043 1045 1044 -351 353 576 573 578 575 577 -352 354 980 982 983 981 574 -360 361 789 786 753 756 751 754 489 990 989 -368 369 362 367 365 363 364 366 724 720 -374 376 371 373 378 372 370 702 703 546 550 -385 386 384 387 644 -395 393 394 391 390 389 392 972 973 969 -403 404 396 399 397 792 794 791 793 795 976 975 -406 409 407 405 1009 1010 1011 1008 1007 717 715 -411 413 538 535 537 996 999 1000 1001 -412 410 215 214 216 835 834 -422 424 420 419 957 954 956 953 955 -426 427 425 848 852 849 847 850 851 -428 80 79 858 853 854 857 855 856 679 678 -438 440 441 437 439 906 905 907 908 909 687 -467 465 466 615 614 -469 468 470 993 992 995 991 619 616 618 617 -476 613 612 611 958 549 547 960 959 961 548 -479 484 486 483 480 482 481 485 541 545 542 543 544 -492 488 493 487 491 494 490 755 750 752 620 621 -502 505 504 503 501 771 775 777 774 776 -510 509 506 507 508 817 818 819 820 886 888 887 -522 523 521 685 686 -525 524 527 526 168 167 166 164 170 163 169 165 582 -534 532 530 533 528 529 531 1006 1003 1005 1004 -554 551 553 552 555 710 706 709 704 705 708 707 910 912 911 688 689 -581 1057 1028 1029 987 986 988 1016 1015 1012 1013 -594 591 593 592 595 455 456 454 453 721 722 -609 608 607 610 690 -623 624 625 627 622 626 781 785 784 780 782 779 778 783 -658 654 657 659 660 653 655 656 840 -682 681 680 761 760 764 844 843 841 842 -696 692 177 939 936 942 943 938 937 940 941 -719 966 968 963 962 965 964 967 -731 735 732 461 463 464 462 460 889 890 -733 736 737 734 459 457 458 913 -743 744 740 738 741 739 742 806 802 804 805 -762 763 765 110 108 106 767 770 768 769 766 -772 773 111 113 112 994 -801 803 807 89 91 90 585 584 583 838 -874 869 872 871 870 873 1027 1024 1026 1025 1030 -878 881 882 631 630 628 498 499 496 219 218 1014 -922 919 920 921 930 925 924 929 926 928 931 -948 949 47 568 48 729 726 725 730 727 728 950 -1017 5 4 1 8 2 1037 1038 1039 1040 -1046 1047 747 1052 1049 1051 1048 1056 1050 -1055 1053 1054 222 224 223 1062 1061 1063 0 





OBJ=
5632.664
BEST_KNOWN=
0.000